100
128
21
50
10
25
29
40
26
51
41
45
9
28
32
51
26
25
22
45
57
34
49
43
35
3
15
44
20
64
52
12
51
27
20
27
62
41
25
25
11
9
18
28
26
26
32
18
28
40
54
61
3
26
17
21
17
11
3
10
15
60
1
21
15
35
47
14
19
30
32
18
20
17
25
13
16
27
43
19
42
16
4
27
22
17
14
31
20
64
16
3
44
53
62
12
1
45
38
62
44
64